(set-info :smt-lib-version 2.6)
(set-logic QF_NIA)
(set-info :source |
    Sequential equivalence checking.
    Calypto Design Systems, Inc. <www.calypto.com>
  |)
(set-info :category "industrial")
(set-info :status unsat)
(declare-fun P_2 () Int)
(declare-fun P_3 () Int)
(declare-fun P_4 () Int)
(declare-fun P_5 () Int)
(declare-fun P_6 () Bool)
(declare-fun P_7 () Bool)
(declare-fun P_8 () Int)
(declare-fun P_9 () Int)
(declare-fun P_10 () Int)
(declare-fun P_13 () Int)
(assert (<= 0 P_2))
(assert (<= P_2 255))
(assert (<= 0 P_3))
(assert (<= P_3 255))
(assert (<= 0 P_4))
(assert (<= P_4 255))
(assert (<= 0 P_5))
(assert (<= P_5 255))
(assert (<= 0 P_8))
(assert (<= P_8 255))
(assert (<= 0 P_9))
(assert (<= P_9 255))
(assert (<= 0 P_10))
(assert (<= P_10 255))
(assert (<= 0 P_13))
(assert (<= P_13 255))
(declare-fun dz () Int)
(declare-fun rz () Int)
(assert (let ((?v_1 (ite (not P_6) (ite (not P_7) 2 1) 0)) (?v_2 (+ (* (- P_5 P_8) P_3) P_2))) (let ((?v_5 (= ?v_1 2)) (?v_3 (= ?v_1 1)) (?v_0 (= ?v_1 0))) (let ((?v_4 (* (+ (+ (- P_2 P_3) P_4) P_5) (- (ite ?v_0 ?v_2 (ite ?v_3 ?v_2 (ite ?v_5 ?v_2 P_9))) P_10)))) (= (+ (* 256 dz) rz) (- (ite ?v_0 ?v_4 (ite ?v_3 ?v_4 (ite ?v_5 ?v_4 P_13))) ?v_4))))))
(assert (> rz 0))
(assert (< rz 256))
(check-sat)
(exit)
